2 -502 0
-3 -502 0
3 502 -2 0
-1 -502 -503 0
1 502 -503 0
502 503 -1 0
1 503 -502 0
-4 -5 -504 0
4 5 -504 0
5 504 -4 0
4 504 -5 0
7 -505 0
-8 -505 0
8 505 -7 0
-6 -505 -506 0
6 505 -506 0
505 506 -6 0
6 506 -505 0
-9 -507 0
10 -507 0
11 -507 0
9 507 -10 -11 0
-5 -507 -508 0
5 507 -508 0
507 508 -5 0
5 508 -507 0
-12 -13 -509 0
12 13 -509 0
13 509 -12 0
12 509 -13 0
-504 -510 0
-506 -510 0
-508 -510 0
-509 -510 0
504 506 508 509 510 0
-14 -15 -511 0
14 15 -511 0
15 511 -14 0
14 511 -15 0
-16 -1 -512 0
16 1 -512 0
1 512 -16 0
16 512 -1 0
-17 -18 -513 0
17 18 -513 0
18 513 -17 0
17 513 -18 0
-19 -20 -514 0
19 20 -514 0
20 514 -19 0
19 514 -20 0
-21 -22 -515 0
21 22 -515 0
22 515 -21 0
21 515 -22 0
-23 -24 -516 0
23 24 -516 0
24 516 -23 0
23 516 -24 0
-25 -26 -517 0
25 26 -517 0
26 517 -25 0
25 517 -26 0
-27 -35 -518 0
27 35 -518 0
35 518 -27 0
27 518 -35 0
-28 -36 -519 0
28 36 -519 0
36 519 -28 0
28 519 -36 0
-29 -37 -520 0
29 37 -520 0
37 520 -29 0
29 520 -37 0
-30 -38 -521 0
30 38 -521 0
38 521 -30 0
30 521 -38 0
-31 -39 -522 0
31 39 -522 0
39 522 -31 0
31 522 -39 0
-32 -40 -523 0
32 40 -523 0
40 523 -32 0
32 523 -40 0
-33 -41 -524 0
33 41 -524 0
41 524 -33 0
33 524 -41 0
-34 -42 -525 0
34 42 -525 0
42 525 -34 0
34 525 -42 0
-518 -526 0
-519 -526 0
-520 -526 0
-521 -526 0
-522 -526 0
-523 -526 0
-524 -526 0
-525 -526 0
518 519 520 521 522 523 524 525 526 0
-43 -44 -527 0
43 44 -527 0
44 527 -43 0
43 527 -44 0
-45 -46 -528 0
45 46 -528 0
46 528 -45 0
45 528 -46 0
-47 -48 -529 0
47 48 -529 0
48 529 -47 0
47 529 -48 0
-49 -50 -530 0
49 50 -530 0
50 530 -49 0
49 530 -50 0
-52 -60 -531 0
52 60 -531 0
60 531 -52 0
52 531 -60 0
-53 -61 -532 0
53 61 -532 0
61 532 -53 0
53 532 -61 0
-54 -62 -533 0
54 62 -533 0
62 533 -54 0
54 533 -62 0
-55 -63 -534 0
55 63 -534 0
63 534 -55 0
55 534 -63 0
-56 -64 -535 0
56 64 -535 0
64 535 -56 0
56 535 -64 0
-57 -65 -536 0
57 65 -536 0
65 536 -57 0
57 536 -65 0
-58 -66 -537 0
58 66 -537 0
66 537 -58 0
58 537 -66 0
-59 -67 -538 0
59 67 -538 0
67 538 -59 0
59 538 -67 0
-531 -539 0
-532 -539 0
-533 -539 0
-534 -539 0
-535 -539 0
-536 -539 0
-537 -539 0
-538 -539 0
531 532 533 534 535 536 537 538 539 0
-68 -71 -540 0
68 71 -540 0
71 540 -68 0
68 540 -71 0
-69 -70 -541 0
69 70 -541 0
70 541 -69 0
69 541 -70 0
-540 -542 0
-541 -542 0
540 541 542 0
-73 -543 0
74 -543 0
73 543 -74 0
-72 -543 -544 0
72 543 -544 0
543 544 -72 0
72 544 -543 0
73 -545 0
-74 -545 0
74 545 -73 0
-75 -545 -546 0
75 545 -546 0
545 546 -75 0
75 546 -545 0
-73 -547 0
-74 -547 0
73 74 547 0
-76 -547 -548 0
76 547 -548 0
547 548 -76 0
76 548 -547 0
-77 -78 -549 0
77 78 -549 0
78 549 -77 0
77 549 -78 0
-80 -70 -550 0
80 70 -550 0
70 550 -80 0
80 550 -70 0
-81 -71 -551 0
81 71 -551 0
71 551 -81 0
81 551 -71 0
552 -550 0
552 -551 0
550 551 -552 0
-79 -552 -553 0
79 552 -553 0
552 553 -79 0
79 553 -552 0
-83 -554 0
84 -554 0
85 -554 0
83 554 -84 -85 0
-82 -554 -555 0
82 554 -555 0
554 555 -82 0
82 555 -554 0
-529 -556 0
-530 -556 0
-51 -556 0
539 -556 0
542 -556 0
-544 -556 0
-546 -556 0
-548 -556 0
-549 -556 0
-553 -556 0
-555 -556 0
529 530 51 544 546 548 549 553 555 556 -539 -542 0
-86 -15 -557 0
86 15 -557 0
15 557 -86 0
86 557 -15 0
-87 -1 -558 0
87 1 -558 0
1 558 -87 0
87 558 -1 0
-88 -18 -559 0
88 18 -559 0
18 559 -88 0
88 559 -18 0
-89 -90 -560 0
89 90 -560 0
90 560 -89 0
89 560 -90 0
-91 -92 -561 0
91 92 -561 0
92 561 -91 0
91 561 -92 0
-93 -94 -562 0
93 94 -562 0
94 562 -93 0
93 562 -94 0
-52 -95 -563 0
52 95 -563 0
95 563 -52 0
52 563 -95 0
-53 -96 -564 0
53 96 -564 0
96 564 -53 0
53 564 -96 0
-54 -97 -565 0
54 97 -565 0
97 565 -54 0
54 565 -97 0
-55 -98 -566 0
55 98 -566 0
98 566 -55 0
55 566 -98 0
-56 -99 -567 0
56 99 -567 0
99 567 -56 0
56 567 -99 0
-57 -100 -568 0
57 100 -568 0
100 568 -57 0
57 568 -100 0
-58 -101 -569 0
58 101 -569 0
101 569 -58 0
58 569 -101 0
-59 -102 -570 0
59 102 -570 0
102 570 -59 0
59 570 -102 0
-563 -571 0
-564 -571 0
-565 -571 0
-566 -571 0
-567 -571 0
-568 -571 0
-569 -571 0
-570 -571 0
563 564 565 566 567 568 569 570 571 0
-49 -103 -572 0
49 103 -572 0
103 572 -49 0
49 572 -103 0
-47 -104 -573 0
47 104 -573 0
104 573 -47 0
47 573 -104 0
-51 -105 -574 0
51 105 -574 0
105 574 -51 0
51 574 -105 0
-106 -26 -575 0
106 26 -575 0
26 575 -106 0
106 575 -26 0
-68 -107 -576 0
68 107 -576 0
107 576 -68 0
68 576 -107 0
-69 -108 -577 0
69 108 -577 0
108 577 -69 0
69 577 -108 0
-576 -578 0
-577 -578 0
576 577 578 0
-503 -579 0
510 -579 0
-511 -579 0
-512 -579 0
-513 -579 0
-514 -579 0
-515 -579 0
-516 -579 0
-517 -579 0
526 -579 0
-527 -579 0
-528 -579 0
556 -579 0
-557 -579 0
-558 -579 0
-559 -579 0
-560 -579 0
-561 -579 0
-562 -579 0
571 -579 0
-572 -579 0
-573 -579 0
-574 -579 0
-575 -579 0
578 -579 0
503 511 512 513 514 515 516 517 527 528 557 558 559 560 561 562 572 573 574 575 579 -510 -526 -556 -571 -578 0
110 -580 0
-111 -580 0
111 580 -110 0
-109 -580 -581 0
109 580 -581 0
580 581 -109 0
109 581 -580 0
-112 -113 -582 0
112 113 -582 0
113 582 -112 0
112 582 -113 0
115 -583 0
-116 -583 0
116 583 -115 0
-114 -583 -584 0
114 583 -584 0
583 584 -114 0
114 584 -583 0
-117 -585 0
118 -585 0
119 -585 0
117 585 -118 -119 0
-113 -585 -586 0
113 585 -586 0
585 586 -113 0
113 586 -585 0
